p tw 41 47
1 2
2 13
3 4
4 5
4 10
5 6
6 7
7 8
8 9
9 10
9 19
10 11
11 12
12 14
13 24
14 15
15 16
16 17
17 18
17 19
18 19
19 20
20 21
21 35
22 23
23 25
24 35
25 26
25 32
26 27
27 28
28 29
29 30
30 31
30 32
31 32
32 33
33 34
34 36
35 37
37 38
38 39
38 22
39 40
40 41
41 3
41 22
